; benchmark generated from python API
(set-info :status unknown)
(declare-datatypes ((IntState 0)) (((Mk1 (val1 Int)) (Mk2 (val2 Int)))))
 (declare-fun c_main_~j~6 () Int)
(declare-fun c_main_~k~6 () Int)
(declare-fun c_main_~i~6 () Int)
(assert
 (let (($x16 (exists ((v_nnf_34_st IntState) (val!116 Int) )(let ((?x56 (val2 v_nnf_34_st)))
 (let (($x39 (<= ?x56 3)))
 (let (($x65 (and (<= (+ ?x56 3) c_main_~k~6) $x39 (<= c_main_~j~6 (+ (* 2 ?x56) 1)))))
 (let (($x52 (not (= v_nnf_34_st (Mk1 val!116)))))
 (and $x52 $x65))))))
 ))
 (let (($x82 (<= c_main_~i~6 2)))
 (let (($x33 (<= c_main_~i~6 3)))
 (let (($x164 (exists ((v_nnf_34 Int) )(let (($x47 (<= v_nnf_34 3)))
 (and (<= (+ v_nnf_34 3) c_main_~k~6) $x47 (<= c_main_~j~6 (+ (* 2 v_nnf_34) 1)))))
 ))
 (and (and $x82 $x164) (not (and $x33 $x82 $x16))))))))
(check-sat)
